Route #1: 0 32 41 68 65 64 14 11 15 2 17 16 12 13 6 71 0
Route #2: 0 9 7 4 8 3 5 10 31 34 60 61 58 59 62 63 66 67 69 37 38 40 39 56 54 55 0
Route #3: 0 57 51 49 70 50 47 48 52 45 53 43 46 44 42 27 28 22 21 30 26 25 24 23 20 0
Route #4: 0 29 33 19 1 18 35 36 0
Cost 301:
